NAME : rc203.1.7269912.tour
COMMENT : Length = 7269912
COMMENT : Found by LKH [Keld Helsgaun] Tue May  2 05:20:28 2017
TYPE : TOUR
DIMENSION : 38
TOUR_SECTION
1
33
34
37
23
15
12
10
8
7
9
14
13
11
26
27
36
38
24
20
18
19
21
6
5
4
22
3
2
25
28
32
16
17
30
29
35
31
-1
EOF
